results - Copia/log/URT_15_deadline_heurTrue.log

Gurobi 10.0.1 (win64) logging started Sat Oct  7 02:22:51 2023

Set parameter LogFile to value "./results//log/URT_15_deadline_heurTrue.log"
Gurobi Optimizer version 10.0.1 build v10.0.1rc0 (win64)

CPU model: AMD Ryzen 7 3700X 8-Core Processor, instruction set [SSE2|AVX|AVX2]
Thread count: 8 physical cores, 16 logical processors, using up to 16 threads

Optimize a model with 859 rows, 589 columns and 3493 nonzeros
Model fingerprint: 0xa43c0bd7
Model has 1 quadratic constraint
Variable types: 0 continuous, 589 integer (525 binary)
Coefficient statistics:
  Matrix range     [1e+00, 1e+07]
  QMatrix range    [1e+00, 1e+00]
  QLMatrix range   [1e+00, 1e+01]
  Objective range  [1e+00, 1e+00]
  Bounds range     [1e+00, 1e+00]
  RHS range        [1e+00, 3e+07]

Warning: Completing partial solution with 547 unfixed non-continuous variables out of 589
User MIP start did not produce a new incumbent solution
User MIP start violates constraint initial_start_time_job0_stage0_machine2_constraint by 2.000000000

Presolve removed 106 rows and 237 columns
Presolve time: 0.03s
Presolved: 775 rows, 373 columns, 3464 nonzeros
Variable types: 0 continuous, 373 integer (288 binary)

Root relaxation: objective 0.000000e+00, 85 iterations, 0.00 seconds (0.00 work units)
Another try with MIP start

    Nodes    |    Current Node    |     Objective Bounds      |     Work
 Expl Unexpl |  Obj  Depth IntInf | Incumbent    BestBd   Gap | It/Node Time

     0     0    0.00000    0    9          -    0.00000      -     -    0s
H    0     0                     103.0000000    0.00000   100%     -    0s
H    0     0                     101.0000000    0.00000   100%     -    0s
     0     0    0.00000    0   33  101.00000    0.00000   100%     -    0s
H    0     0                     100.0000000    0.00000   100%     -    0s
     0     0    0.00000    0    6  100.00000    0.00000   100%     -    0s
H    0     0                      94.0000000    0.00000   100%     -    0s
     0     0    0.00000    0   12   94.00000    0.00000   100%     -    0s
H    0     0                      93.0000000    0.00000   100%     -    0s
H    0     0                      91.0000000    0.00000   100%     -    0s
     0     0    0.00000    0    7   91.00000    0.00000   100%     -    0s
H    0     0                      90.0000000    0.00000   100%     -    0s
     0     0    0.00000    0   12   90.00000    0.00000   100%     -    0s
     0     0    0.00000    0    1   90.00000    0.00000   100%     -    0s
     0     0    0.00000    0    6   90.00000    0.00000   100%     -    0s
     0     0    0.00000    0    9   90.00000    0.00000   100%     -    0s
H    0     0                      89.0000000    0.00000   100%     -    0s
     0     0    0.00000    0   26   89.00000    0.00000   100%     -    0s
     0     0    0.00000    0   25   89.00000    0.00000   100%     -    0s
H    0     0                      88.0000000    0.00000   100%     -    1s
H    0     0                      85.0000000    0.00000   100%     -    1s
H    0     0                      77.0000000    0.00000   100%     -    1s
     0     0    0.00000    0    6   77.00000    0.00000   100%     -    1s
H    0     0                      76.0000000    0.00000   100%     -    1s
     0     0    0.00000    0   14   76.00000    0.00000   100%     -    1s
     0     0    0.00000    0    8   76.00000    0.00000   100%     -    1s
     0     0    0.00000    0    8   76.00000    0.00000   100%     -    1s
     0     2    0.00000    0    8   76.00000    0.00000   100%     -    1s
H15673   592                      72.0000000    8.00000  88.9%   0.5    3s
 20588  3049   54.00000   54   47   72.00000    8.00000  88.9%   2.8    5s
H20591  2898                      71.0000000    8.00000  88.7%   2.8    5s
H20622  2775                      70.0000000    8.00000  88.6%   3.1    5s
H20796  2710                      64.0000000    8.00000  87.5%   3.2    5s
H21927  2951                      60.0000000    8.00000  86.7%   3.6    7s
H21933  2821                      59.0000000    8.00000  86.4%   3.6    7s
 22246  2872 infeasible   48        59.00000    8.00000  86.4%   3.7   10s
H22247  2741                      58.0000000    8.00000  86.2%   3.7   10s
 52108 14011 infeasible   71        58.00000    9.00000  84.5%   7.0   15s
 63292 18078   45.00000   56   70   58.00000   10.00000  82.8%   7.2   20s
 101648 27396   48.00000   74    9   58.00000   12.00000  79.3%   9.5   25s
H121300 31905                      57.0000000   12.00000  78.9%   9.8   27s
 147261 42598 infeasible   85        57.00000   13.00000  77.2%  10.2   30s
 203999 64799   35.00000   83   14   57.00000   14.00096  75.4%  10.5   35s
 266843 85516 infeasible   85        57.00000   16.00000  71.9%  10.4   40s
 324341 105150   41.00000   74   18   57.00000   17.00000  70.2%  10.4   45s
 377574 123743   36.00000   74   21   57.00000   18.00000  68.4%  10.4   50s
 437099 140109 infeasible   84        57.00000   19.00000  66.7%  10.3   55s
 476323 153822   48.00000   84   14   57.00000   19.00000  66.7%  10.4   60s
 510900 164461   33.73487   87   35   57.00000   20.00000  64.9%  10.3   65s
 577149 182924   29.14754   79   29   57.00000   21.00000  63.2%  10.2   70s
*579589 175497              85      55.0000000   21.00000  61.8%  10.2   70s
 632593 191166 infeasible   79        55.00000   21.00000  61.8%  10.2   75s
 691050 205247   51.60000   79   26   55.00000   22.00000  60.0%  10.2   80s
 749732 221867   23.00000   80   18   55.00000   23.00000  58.2%  10.2   85s
 800290 233225 infeasible   90        55.00000   23.00000  58.2%  10.2   90s
 861196 248827   50.00000   79   13   55.00000   23.00911  58.2%  10.2   95s
 917918 261779 infeasible   83        55.00000   24.00000  56.4%  10.2  100s
 973701 275825   26.42857   81   28   55.00000   24.00000  56.4%  10.1  105s
 1028212 288685 infeasible  103        55.00000   25.00000  54.5%  10.1  110s
 1069996 298049   26.00000   74   27   55.00000   25.00000  54.5%  10.2  116s
 1107236 308308   46.00000   83   19   55.00000   25.00000  54.5%  10.2  120s
 1172209 323849   51.00000   81   17   55.00000   26.00000  52.7%  10.2  125s
 1231624 336252 infeasible   74        55.00000   26.00000  52.7%  10.2  130s
 1286574 350186   37.00000   77   27   55.00000   26.00000  52.7%  10.2  135s
 1352390 365086   43.00000   72   10   55.00000   26.92333  51.0%  10.2  140s
 1398033 373978 infeasible   84        55.00000   27.00000  50.9%  10.2  145s
 1455692 387088   49.00000   80    7   55.00000   27.00000  50.9%  10.2  150s
 1520227 400289   27.00000   73   37   55.00000   27.00000  50.9%  10.1  155s
 1577162 414360   42.00000   76   20   55.00000   27.64706  49.7%  10.2  160s
 1612012 419274   40.00000   82   18   55.00000   28.00000  49.1%  10.2  165s
 1672700 431163   38.00000   87   11   55.00000   28.00000  49.1%  10.2  170s
 1731239 442917   28.00000   70   22   55.00000   28.00000  49.1%  10.2  175s
 1788407 454831 infeasible   86        55.00000   28.00000  49.1%  10.2  180s
 1846937 465920   37.00000   82   15   55.00000   29.00000  47.3%  10.2  185s
 1904037 475760 infeasible   83        55.00000   29.00000  47.3%  10.2  190s
 1940812 482235   40.00000   71   15   55.00000   29.00000  47.3%  10.2  195s
 2002993 493893   49.00000   79   12   55.00000   29.00000  47.3%  10.2  200s
 2063574 506038   33.00000   70   18   55.00000   29.00000  47.3%  10.2  205s
 2121012 516691 infeasible   76        55.00000   30.00000  45.5%  10.2  210s
 2170898 522523   54.00000   69   27   55.00000   30.00000  45.5%  10.3  215s
 2220764 529582   51.00000   85   12   55.00000   30.00000  45.5%  10.3  220s
 2277992 538784   30.00000   73   19   55.00000   30.00000  45.5%  10.3  225s
 2334820 549666   47.00000   75   17   55.00000   30.00000  45.5%  10.3  230s
 2392138 558686   30.00000   84   30   55.00000   30.00000  45.5%  10.3  235s
 2440263 566036   50.00000   79    9   55.00000   31.00000  43.6%  10.3  240s
 2488817 572797   45.00000   80   13   55.00000   31.00000  43.6%  10.3  245s
 2525756 576297   36.00000   72   20   55.00000   31.00000  43.6%  10.4  250s
 2580290 584684   44.00000   79   11   55.00000   31.00000  43.6%  10.4  255s
 2628208 591364   44.00000   76   16   55.00000   31.00000  43.6%  10.4  260s
 2682653 601516   48.00000   78   11   55.00000   31.00000  43.6%  10.4  265s
 2724746 607290   54.00000   72   15   55.00000   31.00000  43.6%  10.4  270s
 2774366 614788   54.00000   71    8   55.00000   32.00000  41.8%  10.4  275s
 2830604 623135   51.00000   78   10   55.00000   32.00000  41.8%  10.4  280s
 2884121 630275 infeasible   81        55.00000   32.00000  41.8%  10.4  285s
 2932315 637178 infeasible   77        55.00000   32.00000  41.8%  10.4  290s
 2986424 645792 infeasible   76        55.00000   32.00000  41.8%  10.4  295s
 3031180 652876   51.00000   86   11   55.00000   32.00000  41.8%  10.4  300s
 3083410 660032   46.00000   79   14   55.00000   32.00000  41.8%  10.4  305s
 3120996 666490 infeasible   84        55.00000   32.00000  41.8%  10.4  310s
 3173857 672539 infeasible   82        55.00000   33.00000  40.0%  10.4  315s
 3224837 678325   48.00000   86   13   55.00000   33.00000  40.0%  10.4  320s
 3266278 680892 infeasible   79        55.00000   33.00000  40.0%  10.4  325s
 3313208 686471   46.00000   79   15   55.00000   33.00000  40.0%  10.4  330s
 3360103 690393   52.00000   80   11   55.00000   33.00000  40.0%  10.4  335s
 3409892 696026 infeasible   82        55.00000   33.00000  40.0%  10.5  340s
 3457483 701134 infeasible   74        55.00000   33.00000  40.0%  10.5  345s
 3495624 705183   50.00000   81   15   55.00000   33.00000  40.0%  10.5  350s
 3542213 711084 infeasible   78        55.00000   33.00000  40.0%  10.5  355s
 3587430 716244   48.00000   82    6   55.00000   34.00000  38.2%  10.5  360s
 3619887 717095     cutoff   84        55.00000   34.00000  38.2%  10.5  365s
 3656803 718456 infeasible   88        55.00000   34.00000  38.2%  10.5  370s
 3699143 720269 infeasible   86        55.00000   34.00000  38.2%  10.6  375s
 3743600 724351   37.00000   83   15   55.00000   34.00000  38.2%  10.6  380s
 3790069 729519 infeasible   84        55.00000   34.00000  38.2%  10.6  385s
 3823441 730967   34.00000   74   17   55.00000   34.00000  38.2%  10.6  390s
 3873396 736354   51.00000   77   15   55.00000   34.00000  38.2%  10.6  395s
 3916331 740236   48.12789   80   16   55.00000   34.00000  38.2%  10.6  400s
 3962669 746601   39.00000   73   13   55.00000   34.00000  38.2%  10.6  405s
 4004896 749139   48.00000   81    8   55.00000   34.82456  36.7%  10.6  410s
 4051288 751666 infeasible   79        55.00000   35.00000  36.4%  10.6  415s
 4080202 752176 infeasible   92        55.00000   35.00000  36.4%  10.6  420s
 4117634 753614   50.00000   78    9   55.00000   35.00000  36.4%  10.6  425s
 4160895 755981   46.08108   84   13   55.00000   35.00000  36.4%  10.6  430s
 4209102 760089 infeasible   93        55.00000   35.00000  36.4%  10.6  435s
 4246075 762987 infeasible   88        55.00000   35.00000  36.4%  10.6  440s
 4285118 764823   52.00000   85   10   55.00000   35.00000  36.4%  10.7  445s
 4330559 768300 infeasible   70        55.00000   35.00000  36.4%  10.7  450s
 4370891 770841 infeasible   85        55.00000   35.00000  36.4%  10.7  455s
 4412749 774733 infeasible   85        55.00000   35.00000  36.4%  10.7  460s
 4458337 778846   46.00000   81   15   55.00000   35.00000  36.4%  10.7  465s
 4494819 780471   45.00000   90    8   55.00000   36.00000  34.5%  10.7  470s
 4533053 780361   38.00000   77   12   55.00000   36.00000  34.5%  10.7  475s
 4571982 780653 infeasible   82        55.00000   36.00000  34.5%  10.7  480s
 4612131 781279 infeasible   86        55.00000   36.00000  34.5%  10.7  485s
 4649052 782762   43.00000   88    9   55.00000   36.00000  34.5%  10.7  490s
 4689943 783508   45.00000   88   16   55.00000   36.00000  34.5%  10.7  495s
 4728207 784043 infeasible   88        55.00000   36.00000  34.5%  10.8  500s
 4772785 786482 infeasible   78        55.00000   36.00000  34.5%  10.8  505s
 4812613 787957   45.00000   73   12   55.00000   36.00000  34.5%  10.8  510s
 4858363 791233 infeasible   88        55.00000   36.00000  34.5%  10.8  515s
 4896546 794027   42.10169   76   19   55.00000   36.00000  34.5%  10.8  520s
 4935263 795295   41.00000   71   19   55.00000   36.49180  33.7%  10.8  525s
 4963382 795048   43.00000   86    6   55.00000   37.00000  32.7%  10.8  530s
 5002718 794693 infeasible   84        55.00000   37.00000  32.7%  10.8  535s
 5043914 794151 infeasible   78        55.00000   37.00000  32.7%  10.8  540s
 5082780 794575 infeasible   93        55.00000   37.00000  32.7%  10.8  545s
 5124558 794404 infeasible   90        55.00000   37.00000  32.7%  10.9  550s
 5152655 794409   46.00000   84   13   55.00000   37.00000  32.7%  10.9  555s
 5192300 794835 infeasible   85        55.00000   37.00000  32.7%  10.9  560s
 5230924 794790   47.00000   72   14   55.00000   37.00000  32.7%  10.9  565s
 5271891 795358 infeasible   77        55.00000   37.00000  32.7%  10.9  570s
 5311278 795915   42.00000   81   13   55.00000   37.00000  32.7%  10.9  575s
 5349088 796679   50.00000   88    6   55.00000   37.00000  32.7%  10.9  580s
 5389374 797549 infeasible   78        55.00000   37.00000  32.7%  10.9  585s
 5419512 799122   38.00000   85   21   55.00000   37.00911  32.7%  10.9  590s
 5458583 798602 infeasible   88        55.00000   38.00000  30.9%  11.0  595s
 5502693 797245   53.00000   83    9   55.00000   38.00000  30.9%  11.0  600s
 5544870 796090 infeasible   89        55.00000   38.00000  30.9%  11.0  605s
 5583962 795126 infeasible   91        55.00000   38.00000  30.9%  11.0  610s
 5625538 794740 infeasible   89        55.00000   38.00000  30.9%  11.0  615s
 5667308 794410 infeasible   84        55.00000   38.00000  30.9%  11.0  620s
 5708051 794484   50.00000   81    6   55.00000   38.00000  30.9%  11.0  625s
 5736278 794814 infeasible   82        55.00000   38.00000  30.9%  11.0  630s
 5777641 795074 infeasible   87        55.00000   38.00000  30.9%  11.0  635s
 5822688 795395   53.00000   89    9   55.00000   38.00000  30.9%  11.0  640s
 5850428 795757   51.00000   73   15   55.00000   38.00000  30.9%  11.0  645s
 5892277 796364   49.00000   87    9   55.00000   38.00000  30.9%  11.0  650s
 5934036 796757   47.00000   86   14   55.00000   38.00000  30.9%  11.0  655s
 5972574 796028 infeasible   77        55.00000   39.00000  29.1%  11.0  660s
 6015064 793981   41.00000   81   15   55.00000   39.00000  29.1%  11.0  665s
 6049104 792159   45.00000   83   13   55.00000   39.00000  29.1%  11.1  670s
 6089093 790489 infeasible   87        55.00000   39.00000  29.1%  11.1  675s
 6129585 789124   41.00000   76   15   55.00000   39.00000  29.1%  11.1  680s
 6168465 787486   39.00000   90   16   55.00000   39.00000  29.1%  11.1  685s
 6207563 786451   49.00000   84   15   55.00000   39.00000  29.1%  11.1  690s
 6246931 785421   51.02174   85   16   55.00000   39.00000  29.1%  11.1  695s
 6283804 784639   50.00000   76   12   55.00000   39.00000  29.1%  11.1  700s
 6318501 783820   40.77778   82   19   55.00000   39.00000  29.1%  11.1  705s
 6360930 783136   39.00000   68   21   55.00000   39.00000  29.1%  11.1  710s
 6391208 782338 infeasible   80        55.00000   39.00000  29.1%  11.1  715s
 6431320 782032 infeasible   76        55.00000   39.00000  29.1%  11.1  720s
 6469148 782033   40.00000   86   17   55.00000   39.00000  29.1%  11.1  725s
 6501255 780810   45.00000   86   17   55.00000   40.00000  27.3%  11.1  730s
 6539539 778591   53.00000   81    9   55.00000   40.00000  27.3%  11.1  735s
 6577710 776597   46.00000   84   11   55.00000   40.00000  27.3%  11.1  740s
 6606578 775015 infeasible   81        55.00000   40.00000  27.3%  11.1  745s
 6644275 772914   40.00000   82   19   55.00000   40.00000  27.3%  11.1  750s
 6675727 771568 infeasible   78        55.00000   40.00000  27.3%  11.1  755s
 6713202 769540   51.00000   84    8   55.00000   40.00000  27.3%  11.1  760s
 6747228 767796   40.00000   83   16   55.00000   40.00000  27.3%  11.1  765s
 6765894 767449   45.00000   84    7   55.00000   40.00000  27.3%  11.1  770s
 6805024 766174 infeasible   79        55.00000   40.00000  27.3%  11.1  775s
 6844383 765113   49.00000   84   13   55.00000   40.00000  27.3%  11.1  780s
 6880832 763975 infeasible   93        55.00000   40.00000  27.3%  11.1  785s
 6918568 762894   40.00000   86   14   55.00000   40.00000  27.3%  11.1  790s
 6955203 762067   48.00000   80   11   55.00000   40.00000  27.3%  11.1  795s
 6993740 761700   43.00000   67   17   55.00000   40.00000  27.3%  11.2  800s
 7023940 760776 infeasible   84        55.00000   40.17910  26.9%  11.2  805s
 7062143 757655 infeasible   85        55.00000   41.00000  25.5%  11.2  810s
 7093976 755610 infeasible   79        55.00000   41.00000  25.5%  11.2  815s
 7120339 753780   51.00000   80   10   55.00000   41.00000  25.5%  11.2  820s
 7160970 750571   52.00000   81    6   55.00000   41.00000  25.5%  11.2  825s
 7195630 748251 infeasible   83        55.00000   41.00000  25.5%  11.2  830s
 7232426 745659   47.00000   80   10   55.00000   41.00000  25.5%  11.2  835s
 7270825 743016 infeasible   94        55.00000   41.00000  25.5%  11.2  840s
 7305793 741441   45.00000   81   17   55.00000   41.00000  25.5%  11.2  845s
 7343030 738983   41.00000   80   20   55.00000   41.00000  25.5%  11.2  850s
 7380079 737322 infeasible   74        55.00000   41.00000  25.5%  11.2  855s
 7414421 735859 infeasible   79        55.00000   41.00000  25.5%  11.2  860s
 7454963 734306   47.00000   91   15   55.00000   41.00000  25.5%  11.2  865s
 7488430 733053   50.23810   72   18   55.00000   41.00000  25.5%  11.2  870s
 7528746 731569   47.00000   82   20   55.00000   41.00000  25.5%  11.2  875s
 7562438 729660 infeasible   88        55.00000   41.40299  24.7%  11.2  880s
 7599519 726274   53.00000   75    7   55.00000   42.00000  23.6%  11.2  885s
 7628165 723686 infeasible   77        55.00000   42.00000  23.6%  11.2  890s
 7667036 720470   48.00000   80    9   55.00000   42.00000  23.6%  11.2  895s
 7702653 717681 infeasible   85        55.00000   42.00000  23.6%  11.2  900s
 7741785 714813 infeasible   88        55.00000   42.00000  23.6%  11.2  905s
 7771727 712405   46.00000   83   11   55.00000   42.00000  23.6%  11.2  910s
 7809568 709335 infeasible   79        55.00000   42.00000  23.6%  11.2  915s
 7847547 706685 infeasible   75        55.00000   42.00000  23.6%  11.2  920s
 7881914 704465   45.00000   82   10   55.00000   42.00000  23.6%  11.2  925s
 7917291 702838 infeasible   82        55.00000   42.00000  23.6%  11.2  930s
 7946093 700991   42.00000   78   15   55.00000   42.00000  23.6%  11.2  935s
 7984918 698777   47.00000   82   20   55.00000   42.00000  23.6%  11.2  940s
 8020904 696786   48.00000   77   16   55.00000   42.00000  23.6%  11.2  945s
 8057692 694742 infeasible   91        55.00000   42.12121  23.4%  11.2  950s
 8094451 690745   54.00000   87    2   55.00000   43.00000  21.8%  11.2  955s
 8132040 687133   48.00000   75    8   55.00000   43.00000  21.8%  11.2  960s
 8167280 683464   43.00000   69    9   55.00000   43.00000  21.8%  11.2  965s
 8204653 680048   47.00000   75   11   55.00000   43.00000  21.8%  11.2  970s
 8241851 676573   44.00000   88   19   55.00000   43.00000  21.8%  11.2  975s
 8283236 673183 infeasible   78        55.00000   43.00000  21.8%  11.2  980s
 8318576 670249   49.00000   80    9   55.00000   43.00000  21.8%  11.2  985s
 8354680 666934 infeasible   70        55.00000   43.00000  21.8%  11.1  990s
 8393321 664379   44.00000   82   14   55.00000   43.00000  21.8%  11.1  995s
 8431029 661525 infeasible   86        55.00000   43.00000  21.8%  11.1 1000s
 8471351 658520   44.00000   90   10   55.00000   43.00000  21.8%  11.1 1005s
 8507859 656080   43.00000   75   17   55.00000   43.00000  21.8%  11.1 1010s
 8545305 653460   51.20000   84   19   55.00000   43.00000  21.8%  11.1 1015s
 8581988 650829   54.00000   76    7   55.00000   43.18182  21.5%  11.1 1020s
 8608062 647144   44.00000   79   12   55.00000   44.00000  20.0%  11.1 1025s
 8648391 642698   45.00000   82   14   55.00000   44.00000  20.0%  11.1 1030s
 8689325 638202   47.00000   88   10   55.00000   44.00000  20.0%  11.1 1035s
 8718360 635080   45.94118   78   14   55.00000   44.00000  20.0%  11.1 1040s
 8756985 630573   52.00000   93    5   55.00000   44.00000  20.0%  11.1 1045s
*8770569 554810              90      53.0000000   44.00000  17.0%  11.1 1047s
 8790978 550116   50.25604   80   17   53.00000   44.00000  17.0%  11.1 1050s
 8827493 543405 infeasible   81        53.00000   44.00000  17.0%  11.1 1055s
 8862064 537422 infeasible   87        53.00000   44.00000  17.0%  11.1 1060s
 8893482 532025 infeasible   77        53.00000   44.00000  17.0%  11.1 1065s
 8931439 525704 infeasible   85        53.00000   44.00000  17.0%  11.1 1070s
 8962158 520550   45.00000   85   11   53.00000   44.00000  17.0%  11.1 1075s
 8995017 514116 infeasible   83        53.00000   44.50000  16.0%  11.1 1080s
 9030753 505715   45.00000   79   14   53.00000   45.00000  15.1%  11.1 1085s
 9066897 498273 infeasible   79        53.00000   45.00000  15.1%  11.1 1090s
 9102729 490863 infeasible   86        53.00000   45.00000  15.1%  11.1 1095s
 9138490 483095 infeasible   96        53.00000   45.00000  15.1%  11.1 1100s
 9171922 476348 infeasible   68        53.00000   45.00000  15.1%  11.1 1105s
 9205442 469579 infeasible   64        53.00000   45.00000  15.1%  11.1 1110s
 9239338 462770   50.00000   82    9   53.00000   45.00000  15.1%  11.1 1115s
 9275789 455775   46.00000   70   15   53.00000   45.00000  15.1%  11.1 1120s
 9308909 449490   47.00000   90    8   53.00000   45.01575  15.1%  11.1 1125s
 9342820 440506   46.00000   84   10   53.00000   46.00000  13.2%  11.0 1130s
 9376979 431805 infeasible   74        53.00000   46.00000  13.2%  11.0 1135s
 9410789 423622 infeasible   88        53.00000   46.00000  13.2%  11.0 1140s
 9444718 415346 infeasible   97        53.00000   46.00000  13.2%  11.0 1145s
 9481485 406918   50.50000   81   15   53.00000   46.00000  13.2%  11.0 1150s
 9510725 400446   51.00000   70   14   53.00000   46.00000  13.2%  11.0 1155s
 9546593 392485   46.00000   74   17   53.00000   46.00000  13.2%  11.0 1160s
 9580108 385596 infeasible   87        53.00000   46.00000  13.2%  11.0 1165s
 9612757 377152 infeasible   83        53.00000   46.45455  12.3%  11.0 1170s
 9648486 367249 infeasible   89        53.00000   47.00000  11.3%  11.0 1175s
 9679286 358296   47.00000   78   12   53.00000   47.00000  11.3%  11.0 1180s
 9713172 349177 infeasible   88        53.00000   47.00000  11.3%  11.0 1185s
 9748696 339693   51.00000   81   13   53.00000   47.00000  11.3%  11.0 1190s
 9778898 331966   48.00000   82   12   53.00000   47.00000  11.3%  11.0 1195s
 9810751 323489   48.00000   79   13   53.00000   47.00000  11.3%  11.0 1200s
 9838574 316459   48.00000   78   12   53.00000   47.00000  11.3%  10.9 1205s
 9872102 307363 infeasible   86        53.00000   47.84000  9.74%  10.9 1210s
 9908212 296290 infeasible   84        53.00000   48.00000  9.43%  10.9 1215s
 9944378 285946   48.09879   83   16   53.00000   48.00000  9.43%  10.9 1220s
 9977744 275849 infeasible   88        53.00000   48.00000  9.43%  10.9 1225s
 10011696 265528   48.00000   72   14   53.00000   48.00000  9.43%  10.9 1230s
 10045684 255649 infeasible   82        53.00000   48.00000  9.43%  10.9 1235s
 10079199 245309 infeasible   83        53.00000   48.00000  9.43%  10.9 1240s
 10108222 235939 infeasible  100        53.00000   49.00000  7.55%  10.9 1245s
 10144028 225179 infeasible   91        53.00000   49.00000  7.55%  10.9 1250s
 10177325 214379   49.09231   91   19   53.00000   49.00000  7.55%  10.9 1255s
 10210746 202901   49.00000   81    9   53.00000   49.00000  7.55%  10.9 1260s
 10243844 192790 infeasible   92        53.00000   49.00000  7.55%  10.8 1265s
 10280049 181495   50.00000   76   10   53.00000   49.00000  7.55%  10.8 1270s
 10309570 171568   51.00000   92    7   53.00000   49.50000  6.60%  10.8 1275s
 10343923 158989   50.00000   84   11   53.00000   50.00000  5.66%  10.8 1280s
 10376233 147135   50.00000   77    9   53.00000   50.00000  5.66%  10.8 1285s
 10412319 134684 infeasible   86        53.00000   50.00000  5.66%  10.8 1290s
 10448152 122522 infeasible   86        53.00000   50.00000  5.66%  10.8 1295s
 10483746 111012 infeasible   83        53.00000   50.04429  5.58%  10.8 1300s
 10519617 95152   51.00000   82   19   53.00000   51.00000  3.77%  10.7 1305s
 10556041 81100 infeasible   74        53.00000   51.00000  3.77%  10.7 1310s
 10597164 65661 infeasible   85        53.00000   51.00000  3.77%  10.7 1315s
 10635441 49940 infeasible   86        53.00000   51.15625  3.48%  10.7 1320s
 10682506 17074 infeasible   86        53.00000   52.00000  1.89%  10.7 1325s

Cutting planes:
  Learned: 29
  Gomory: 4
  Implied bound: 9
  Projected implied bound: 1
  MIR: 4
  Flow cover: 7
  GUB cover: 1
  RLT: 2

Explored 10711655 nodes (114151737 simplex iterations) in 1328.84 seconds (367.88 work units)
Thread count was 16 (of 16 available processors)

Solution count 10: 53 55 57 ... 72

Optimal solution found (tolerance 1.00e-04)
Best objective 5.300000000000e+01, best bound 5.300000000000e+01, gap 0.0000%
Warning: constraint name "precedence between 0,0 to 0,2 if x_[0,0,0,2,3]=0, i.e. 0,2 before 0,0" has a space
Warning: constraint name "precedence between 0,0 to 0,2 if x_[0,0,0,2,3]=0, i.e. 0,2 before 0,0" has a space
Warning: default constraint names used to write mps file
